(set-logic QF_S)
(declare-fun T_9a () Bool)
(declare-fun T_9b () Bool)
(declare-fun T_SELECT_14 () Bool)
(declare-fun I0_230 () Int)
(declare-fun I0_234 () Int)
(declare-fun I1_230 () Int)
(declare-fun I1_234 () Int)
(declare-fun I2_230 () Int)
(declare-fun I2_234 () Int)
(declare-fun PCTEMP_LHS_60 () Int)
(declare-fun T_9f () Int)
(declare-fun NEW_DGNode_735 () String)
(declare-fun NEW_DGNode_736 () String)
(declare-fun PCTEMP_LHS_64 () String)
(assert (= PCTEMP_LHS_64 NEW_DGNode_736))
(assert (= NEW_DGNode_736 NEW_DGNode_735))
(assert (not (str.in.re NEW_DGNode_736 (str.to.re "+"))))
(assert (not (str.in.re NEW_DGNode_735 (str.to.re "%"))))
(assert (= T_SELECT_14 (not (= PCTEMP_LHS_60 (- 1)))))
(assert T_9b)
(assert (= T_9b (not T_9a)))
(assert (= T_9a (= PCTEMP_LHS_60 (- 1))))
(assert (= I0_230 (- PCTEMP_LHS_60 0)))
(assert (>= PCTEMP_LHS_60 0))
(assert (= I2_230 I1_230))
(assert (<= PCTEMP_LHS_60 I1_230))
(assert (= T_9f (+ PCTEMP_LHS_60 1)))
(assert (>= T_9f 0))
(assert (>= I2_234 T_9f))
(assert (= I2_234 I1_234))
(assert (<= I2_234 I1_234))
(assert (= I0_234 (- I2_234 T_9f)))
(assert (= I0_234 (str.len PCTEMP_LHS_64))) ; len 0
(check-sat)
